c ---- [ banner ] ------------------------------------------------------------
c
c Kissat SAT Solver
c 
c Copyright (c) 2021-2023 Armin Biere University of Freiburg
c Copyright (c) 2019-2021 Armin Biere Johannes Kepler University Linz
c 
c Version 3.1.1 unknown
c gcc (Ubuntu 9.4.0-1ubuntu1~20.04.2) 9.4.0 -W -Wall -O3 -DNDEBUG
c Mon Feb 26 18:18:52 CET 2024 Linux OptiPlex-7080 5.15.0-88-generic x86_64
c
c ---- [ parsing ] -----------------------------------------------------------
c
c opened and reading DIMACS file:
c
c   /home/oliveras/SAT-comp-2023//004b0f451f7d96f6a572e9e76360f51a-spg_420_280.cnf
c
c parsed 'p cnf 674643 3463100' header
c closing input after reading 93154442 bytes (89 MB)
c finished parsing after 0.99 seconds
c
c ---- [ options ] -----------------------------------------------------------
c
c --seed=1                         (different from default '0')
c
c ---- [ solving ] -----------------------------------------------------------
c
c  seconds  switched conflicts      irredundant  variables
c          MB reductions redundant          trail      remaining
c           level restarts     binary          glue
c
c *  0.99 207 0 0 0  0   0   0 602493 2860607 0% 0 674643 100%
c {  0.99 207 0 0 0  0   0   0 602493 2860607 0% 0 674643 100%
c -  1.13 220 287 0 1 36 1000 769 602557 2860606 2% 4 674643 100%
c }  1.13 220 287 1 1 36 1000 769 602557 2860606 2% 4 674643 100%
c [  1.13 220 0 1 1 36 1000 769 602557 2860606 0% 0 674643 100%
c B  1.16 224 249 1 1 36 1002 771 602557 2860606 4% 4 674643 100%
c ]  1.28 227 180 2 1 36 1585 1293 602570 2860606 12% 5 674643 100%
c {  1.28 227 287 2 1 36 1585 1293 602570 2860606 2% 4 674643 100%
c -  1.39 229 270 2 2 41 2000 1473 602592 2860605 4% 4 674643 100%
c }  1.44 229 263 3 2 45 2585 2013 602602 2860605 5% 3 674643 100%
c [  1.44 229 180 3 2 45 2585 2013 602602 2860605 12% 5 674643 100%
c W  2.03 267 180 3 2 45 2585 2013 602602 2860605 12% 5 674643 100%
c -  2.18 267 140 3 3 45 3414 2322 602626 2860605 6% 5 674643 100%
c d  2.54 276 143 3 3 46 4277 3115 572130 2855159 7% 5 659175 98%
c u  2.84 278 143 3 3 46 4277 3113 572132 2855159 7% 5 659175 98%
c v  3.04 278 143 3 3 46 4277 3113 572132 2855159 7% 5 659175 98%
c w  4.12 293 143 3 3 46 4277 3207 572471 2854726 7% 5 659175 98%
c =  4.49 301 143 3 3 46 4277 3207 572479 2854716 7% 5 659171 98%
c d  4.72 301 143 3 3 46 4277 3207 572471 2854716 7% 5 659171 98%
c ]  4.98 301 126 4 3 46 4673 3550 572487 2854716 6% 5 659171 98%
c
c  seconds    switched conflicts        irredundant  variables
c          MB  reductions  redundant            trail      remaining
c            level restarts        binary          glue
c
c {  4.98 301 263 4 3 46 4673 3550 572487 2854716 5% 3 659171 98%
c -  5.77 305 282 4 4 140 5146 3245 572501 2854716 5% 3 659171 98%
c i  6.40 305 357 4 4 292 6499 4539 572507 2854715 6% 4 659104 98%
c }  6.60 305 362 5 4 345 7025 5048 572508 2854715 6% 4 658861 98%
c [  6.60 305 126 5 4 345 7025 5048 572508 2854715 6% 5 658861 98%
c I  6.60 305 126 5 4 345 7025 5048 572508 2854715 6% 5 658861 98%
c -  6.70 305 125 5 5 345 7148 4369 571798 2854715 5% 5 658861 98%
c u  7.39 307 120 5 5 346 8548 5541 573149 2852013 4% 5 658861 98%
c v  7.62 309 120 5 5 346 8548 5535 573155 2852013 4% 5 658861 98%
c w  8.72 315 120 5 5 346 8548 5785 573563 2851355 4% 5 658861 98%
c =  9.19 315 120 5 5 346 8548 5785 574903 2851347 4% 5 658191 98%
c d  9.46 315 120 5 5 346 8548 5785 571790 2851170 4% 5 657928 98%
c t  9.68 315 120 5 5 346 8548 5785 571147 2851170 4% 5 657928 98%
c -  9.88 315 120 5 6 347 9389 5626 571180 2851170 4% 5 657928 98%
c B  9.96 315 122 5 6 347 10796 6883 571233 2851170 4% 5 657928 98%
c - 10.16 315 118 5 7 348 11838 6648 571262 2851170 3% 5 657928 98%
c - 10.38 315 117 5 8 350 14485 7627 571342 2851170 3% 5 657928 98%
c W 11.03 342 118 5 8 351 16328 9308 571371 2851170 3% 5 657928 98%
c - 11.22 342 121 5 9 351 17313 8528 571397 2851170 3% 5 657928 98%
c u 11.82 342 122 5 9 351 17429 8605 571431 2851170 4% 5 657928 98%
c
c  seconds    switched  conflicts         irredundant  variables
c          MB  reductions    redundant            trail      remaining
c            level restarts          binary          glue
c
c v 12.03 342 122 5 9 351 17429 8597 571439 2851170 4% 5 657928 98%
c w 13.08 342 122 5 9 351 17429 8744 572029 2850433 4% 5 657928 98%
c - 14.32 342 142 5 10 351 20317 9525 572081 2850431 4% 5 657928 98%
c 2 14.44 342 140 5 10 352 21383 10499 571509 2850431 4% 5 657928 98%
c s 14.65 342 140 5 10 352 21383 10499 572300 2786682 4% 5 657928 98%
c e 16.04 362 140 5 10 352 21383 10499 340431 2900482 4% 5 541686 80%
c ^ 16.04 362 140 5 10 352 21383 10499 340431 2900482 4% 5 541686 80%
c - 16.60 347 136 5 11 354 23479 8548 340506 2900482 3% 5 541686 80%
c O 16.61 347 135 5 11 354 23856 8867 340524 2900481 3% 5 541686 80%
c - 16.89 347 132 5 12 356 26795 9848 340594 2900481 3% 5 541686 80%
c - 17.02 347 128 5 13 358 30259 11034 340642 2900481 3% 5 541686 80%
c u 17.64 348 125 5 13 358 31220 11830 340712 2900481 3% 5 541686 80%
c v 17.85 348 125 5 13 358 31220 11825 340717 2900481 3% 5 541686 80%
c w 18.89 353 125 5 13 358 31220 11933 341102 2899988 3% 5 541686 80%
c t 19.71 353 125 5 13 358 31220 11933 340671 2899988 3% 5 541686 80%
c ] 19.76 353 121 6 13 358 32872 13422 340701 2899988 3% 5 541686 80%
c { 19.77 353 362 6 13 358 32872 13422 340701 2899988 6% 4 541686 80%
c - 20.01 355 339 6 14 381 33864 12571 340706 2899988 7% 3 541686 80%
c i 20.40 355 332 6 14 624 34998 13618 340714 2899988 7% 4 541683 80%
c i 20.40 355 331 6 14 624 35021 13635 340717 2899988 7% 4 541393 80%
c
c  seconds    switched   conflicts          irredundant  variables
c          MB   reductions     redundant            trail      remaining
c            level  restarts           binary          glue
c
c i 20.40 355 330 6 14 624 35042 13648 340720 2899988 7% 4 541390 80%
c i 20.41 355 328 6 14 624 35091 13674 340729 2899987 7% 4 541388 80%
c i 20.47 355 307 6 14 625 35695 14246 340729 2899987 7% 4 541387 80%
c i 20.48 355 307 6 14 625 35696 14246 340729 2899987 7% 4 541386 80%
c i 20.48 357 312 6 14 626 35703 14250 340730 2899987 7% 4 541385 80%
c i 20.49 357 314 6 14 626 35705 14251 340730 2899987 7% 4 541384 80%
c i 20.49 357 314 6 14 626 35706 14251 340730 2899987 7% 4 541383 80%
c i 20.91 357 303 6 14 873 36351 14862 340731 2899987 7% 4 541382 80%
c i 20.92 357 305 6 14 876 36357 14866 340731 2899987 7% 4 541381 80%
c i 20.92 357 305 6 14 876 36358 14866 340731 2899987 7% 4 541380 80%
c i 20.93 357 306 6 14 877 36360 14867 340731 2899987 7% 4 541379 80%
c i 21.05 357 300 6 14 949 36532 15031 340733 2899987 6% 5 541371 80%
c i 21.05 357 300 6 14 954 36544 15041 340733 2899987 6% 5 541368 80%
c i 21.11 357 298 6 14 982 36607 15099 340735 2899987 6% 5 541363 80%
c } 21.14 357 288 7 14 991 36945 15415 340741 2899987 6% 5 541363 80%
c [ 21.14 357 121 7 14 991 36945 15415 340741 2899987 3% 5 541363 80%
c B 21.14 357 121 7 14 991 36945 15415 340741 2899987 3% 5 541363 80%
c - 21.25 357 121 7 15 991 37605 14062 340194 2899987 3% 5 541363 80%
c - 21.47 357 120 7 16 994 41478 15472 340232 2899987 2% 5 541363 80%
c e 22.81 359 118 7 16 995 42578 16472 309077 2955424 2% 5 510559 76%
c
c  seconds    switched   conflicts          irredundant  variables
c          MB   reductions     redundant            trail      remaining
c            level  restarts           binary          glue
c
c ^ 22.81 359 118 7 16 995 42578 16472 309077 2955424 2% 5 510559 76%
c - 23.22 359 115 7 17 996 45478 15291 309100 2955423 2% 5 510559 76%
c W 23.76 365 109 7 17 997 49170 18699 309135 2955422 2% 5 510559 76%
c - 23.87 365 108 7 18 997 49601 16741 309135 2955422 2% 5 510559 76%
c d 24.15 365 107 7 18 997 50082 17192 309210 2955349 2% 5 510558 76%
c b 24.31 365 107 7 18 997 50082 17192 309210 2955349 2% 5 510557 76%
c u 24.57 365 107 7 18 997 50082 17131 309262 2955349 2% 5 510555 76%
c v 24.83 365 107 7 18 997 50082 17128 309265 2955349 2% 5 510555 76%
c w 26.01 371 107 7 18 997 50082 19749 311973 2950002 2% 5 510555 76%
c = 26.55 371 107 7 18 997 50082 19749 311979 2949980 2% 5 510549 76%
c d 26.79 371 107 7 18 997 50082 19745 311938 2949939 2% 5 510525 76%
c t 27.02 371 107 7 18 997 50082 19745 311756 2949939 2% 5 510522 76%
c i 27.08 371 107 7 18 997 50082 19745 311756 2949939 2% 5 510522 76%
c - 27.26 371 103 7 19 1000 53843 21018 311757 2949939 2% 5 510522 76%
c - 27.48 371 97 7 20 1003 58201 22776 311787 2949939 2% 5 510522 76%
c - 27.70 371 94 7 21 1004 62677 24253 311815 2949939 2% 5 510522 76%
c I 27.75 371 92 7 21 1005 64074 25529 311830 2949938 2% 5 510522 76%
c - 27.92 371 89 7 22 1005 67259 26176 311841 2949938 2% 5 510522 76%
c - 28.15 371 84 7 23 1005 71951 27444 311845 2949938 2% 5 510522 76%
c d 28.47 371 83 7 23 1007 74394 29665 311873 2949901 2% 5 510521 76%
c
c  seconds   switched    conflicts          irredundant  variables
c          MB  reductions      redundant            trail      remaining
c           level   restarts           binary          glue
c
c u 28.84 373 83 7 23 1007 74394 29644 311894 2949901 2% 5 510521 76%
c v 29.07 373 83 7 23 1007 74394 29623 311915 2949901 2% 5 510521 76%
c w 30.19 373 83 7 23 1007 74394 30514 312852 2948073 2% 5 510521 76%
c d 30.86 373 83 7 23 1007 74394 30514 312856 2948058 2% 5 510519 76%
c t 31.08 373 83 7 23 1007 74394 30514 312745 2948058 2% 5 510519 76%
c - 31.27 373 82 7 24 1009 76748 29345 312743 2948058 1% 5 510519 76%
c ] 31.39 373 80 8 24 1011 79865 32252 312752 2948058 1% 5 510519 76%
c { 31.39 373 288 8 24 1011 79865 32252 312752 2948058 6% 5 510519 76%
c i 31.50 373 297 8 24 1157 80676 32986 312758 2948058 6% 5 510518 76%
c i 31.52 373 350 8 24 1157 80789 33066 312773 2948058 6% 5 510515 76%
c i 31.52 373 352 8 24 1157 80804 33076 312776 2948058 6% 5 510514 76%
c i 31.52 373 356 8 24 1157 80847 33097 312792 2948053 6% 5 510511 76%
c i 31.52 373 367 8 24 1157 80937 33179 312793 2948053 6% 5 510398 76%
c i 31.52 373 368 8 24 1157 80941 33180 312794 2948053 6% 5 510387 76%
c i 31.52 373 368 8 24 1157 80995 33208 312808 2948050 6% 5 510383 76%
c i 31.52 373 368 8 24 1157 81013 33220 312812 2948050 6% 5 510368 76%
c i 31.52 373 368 8 24 1157 81017 33221 312814 2948050 6% 5 510366 76%
c i 31.52 373 369 8 24 1157 81028 33224 312821 2948050 6% 5 510360 76%
c i 31.53 373 369 8 24 1157 81061 33249 312828 2948050 6% 5 510358 76%
c i 31.53 373 369 8 24 1157 81071 33257 312829 2948050 5% 5 510353 76%
c
c  seconds    switched    conflicts          irredundant  variables
c          MB   reductions      redundant            trail      remaining
c            level   restarts           binary          glue
c
c i 31.53 373 370 8 24 1157 81117 33297 312831 2948050 5% 5 510350 76%
c i 31.53 373 372 8 24 1157 81276 33437 312842 2948049 5% 5 510349 76%
c i 31.53 373 372 8 24 1157 81295 33452 312844 2948049 5% 5 510348 76%
c i 31.53 373 373 8 24 1157 81336 33486 312848 2948049 5% 5 510347 76%
c i 31.53 373 373 8 24 1157 81368 33514 312851 2948049 5% 5 510338 76%
c i 31.53 373 373 8 24 1157 81375 33519 312852 2948049 5% 5 510331 76%
c i 31.53 373 374 8 24 1157 81385 33524 312856 2948049 5% 5 510326 76%
c i 31.54 373 376 8 24 1157 81645 33754 312869 2948049 5% 4 509446 76%
c - 31.62 373 376 8 25 1157 81646 30461 311789 2948049 5% 4 509446 76%
c i 31.79 373 411 8 25 1205 82620 31311 311815 2948048 5% 4 509442 76%
c i 31.79 373 411 8 25 1205 82627 31312 311820 2948048 5% 4 509439 76%
c i 31.97 373 404 8 25 1400 83837 32430 311831 2948048 4% 5 509429 76%
c i 31.98 373 402 8 25 1418 83903 32483 311832 2948048 4% 5 509317 75%
c i 31.98 373 402 8 25 1418 83904 32483 311832 2948048 4% 5 509295 75%
c i 31.98 373 401 8 25 1418 83933 32503 311836 2948048 4% 5 509290 75%
c i 31.98 373 400 8 25 1418 83981 32533 311849 2948045 4% 5 509285 75%
c i 31.98 373 397 8 25 1418 84057 32595 311859 2948045 4% 4 509281 75%
c i 31.98 373 397 8 25 1418 84059 32595 311860 2948045 4% 4 509280 75%
c i 31.98 373 397 8 25 1418 84060 32595 311860 2948045 4% 4 508594 75%
c i 31.98 373 397 8 25 1418 84061 32595 311860 2948045 4% 4 508590 75%
c
c  seconds    switched    conflicts          irredundant  variables
c          MB   reductions      redundant            trail      remaining
c            level   restarts           binary          glue
c
c i 31.98 373 396 8 25 1418 84103 32622 311869 2948045 4% 4 508577 75%
c i 31.98 373 395 8 25 1418 84125 32637 311873 2948045 4% 4 508573 75%
c i 31.98 373 395 8 25 1418 84129 32638 311875 2948045 4% 4 508565 75%
c i 31.98 373 394 8 25 1418 84154 32654 311880 2948045 4% 4 508552 75%
c i 31.98 373 393 8 25 1418 84202 32687 311891 2948045 4% 4 508547 75%
c i 31.99 373 388 8 25 1418 84344 32813 311897 2948044 4% 4 508542 75%
c i 31.99 373 386 8 25 1418 84416 32866 311909 2948041 4% 4 508521 75%
c i 31.99 373 386 8 25 1418 84419 32866 311910 2948041 4% 4 508516 75%
c i 31.99 373 386 8 25 1418 84421 32866 311911 2948041 4% 4 508511 75%
c i 31.99 373 386 8 25 1418 84425 32867 311912 2948041 4% 4 508506 75%
c i 31.99 373 386 8 25 1418 84427 32867 311913 2948041 4% 4 508505 75%
c i 32.00 373 384 8 25 1418 84486 32914 311918 2948041 4% 4 508499 75%
c i 32.00 373 384 8 25 1418 84487 32914 311918 2948041 4% 4 508494 75%
c i 32.08 375 391 8 25 1424 84820 33224 311922 2948039 4% 4 508493 75%
c i 32.09 375 391 8 25 1424 84822 33224 311923 2948039 4% 4 508491 75%
c i 32.09 375 391 8 25 1426 84829 33227 311926 2948039 4% 4 508467 75%
c i 32.09 375 389 8 25 1426 84886 33271 311936 2948039 4% 4 507132 75%
c i 32.09 375 389 8 25 1426 84890 33273 311937 2948039 4% 4 507123 75%
c i 32.09 375 388 8 25 1426 84940 33317 311940 2948039 4% 4 507119 75%
c i 32.09 375 388 8 25 1426 84943 33318 311941 2948039 4% 4 507118 75%
c
c  seconds    switched    conflicts          irredundant  variables
c          MB   reductions      redundant            trail      remaining
c            level   restarts           binary          glue
c
c i 32.09 375 387 8 25 1426 84968 33338 311945 2948038 4% 4 507056 75%
c i 32.09 375 387 8 25 1426 84969 33338 311945 2948038 4% 4 507050 75%
c i 32.09 375 387 8 25 1426 84970 33338 311945 2948038 4% 4 507043 75%
c i 32.09 375 387 8 25 1426 84973 33338 311946 2948037 4% 4 507036 75%
c i 32.09 375 387 8 25 1426 84974 33338 311946 2948037 4% 4 507030 75%
c i 32.09 375 387 8 25 1426 84977 33339 311947 2948037 4% 4 507025 75%
c i 32.09 375 387 8 25 1426 84978 33339 311947 2948037 4% 4 506983 75%
c i 32.09 375 387 8 25 1426 84979 33339 311947 2948037 4% 4 506975 75%
c i 32.09 375 386 8 25 1426 85009 33362 311951 2948037 4% 4 506974 75%
c i 32.10 375 382 8 25 1426 85149 33481 311958 2948037 4% 4 506970 75%
c i 32.10 375 381 8 25 1426 85170 33495 311962 2948036 4% 4 506968 75%
c i 32.11 375 378 8 25 1426 85287 33592 311971 2948034 4% 4 506942 75%
c i 32.11 375 377 8 25 1426 85314 33610 311978 2948032 4% 4 506940 75%
c i 32.11 375 376 8 25 1426 85348 33635 311983 2948032 4% 4 506939 75%
c i 32.12 375 374 8 25 1426 85422 33695 311992 2948031 4% 4 506938 75%
c i 32.13 375 374 8 25 1426 85426 33696 311994 2948031 4% 4 506936 75%
c } 32.23 375 372 9 25 1541 86024 34245 312004 2948030 4% 4 506936 75%
c [ 32.23 375 80 9 25 1541 86024 34245 312004 2948030 1% 5 506936 75%
c B 32.23 375 80 9 25 1541 86024 34245 312004 2948030 1% 5 506936 75%
c - 32.33 375 80 9 26 1541 86646 31670 310424 2948030 1% 5 506936 75%
c
c  seconds   switched    conflicts          irredundant  variables
c          MB  reductions      redundant            trail      remaining
c           level   restarts           binary          glue
c
c 2 32.48 375 78 9 26 1543 88572 33497 306958 2948030 1% 6 506936 75%
c s 32.69 375 78 9 26 1543 88572 33497 306968 2922120 1% 6 506936 75%
c e 33.61 375 78 9 26 1543 88572 33497 304821 2926141 1% 6 504519 75%
c ^ 33.61 375 78 9 26 1543 88572 33497 304821 2926141 1% 6 504519 75%
c - 33.97 375 75 9 27 1545 91745 31864 304701 2926140 1% 6 504519 75%
c - 34.25 375 73 9 28 1547 96941 33946 304712 2926140 1% 6 504519 75%
c ] 34.42 375 71 10 28 1549 100892 37704 304715 2926140 1% 6 504519 75%
c { 34.42 375 372 10 28 1549 100892 37704 304715 2926140 4% 4 504519 75%
c - 34.74 375 367 10 29 1891 102232 35596 304725 2926140 4% 4 504519 75%
c i 34.82 375 381 10 29 1936 102567 35871 304739 2926138 3% 4 504515 75%
c i 34.82 375 381 10 29 1936 102592 35895 304739 2926138 3% 4 504514 75%
c i 34.83 375 379 10 29 1936 102679 35971 304743 2926138 3% 4 504504 75%
c i 34.84 375 377 10 29 1936 102754 36025 304752 2926137 3% 4 504489 75%
c d 35.37 377 371 10 29 2317 104303 37437 306504 2924168 3% 5 504471 75%
c b 35.56 377 371 10 29 2317 104303 37437 306504 2924168 3% 5 504264 75%
c u 35.82 377 371 10 29 2317 104303 37389 306506 2924168 3% 5 504264 75%
c v 36.08 377 371 10 29 2317 104303 37385 306507 2924168 3% 5 504264 75%
c w 37.26 377 371 10 29 2317 104303 39313 308507 2918736 3% 5 504262 75%
c = 37.79 377 371 10 29 2317 104303 39313 309000 2917490 3% 5 503881 75%
c d 38.03 377 371 10 29 2317 104303 39252 307779 2916529 3% 5 503507 75%
c
c  seconds     switched    conflicts           irredundant  variables
c          MB    reductions       redundant            trail      remaining
c            level    restarts            binary          glue
c
c t 38.26 377 371 10 29 2317 104303 39252 307716 2916529 3% 5 503503 75%
c b 38.31 377 371 10 29 2317 104303 39252 307716 2916529 3% 5 503468 75%
c i 38.31 377 371 10 29 2317 104303 39252 307716 2916529 3% 5 503468 75%
c - 38.92 377 400 10 30 3060 107617 38682 306566 2916526 3% 5 503468 75%
c } 39.27 377 401 11 30 3513 109520 40476 306576 2916523 2% 5 503468 75%
c [ 39.27 377 71 11 30 3513 109520 40476 306576 2916523 1% 6 503468 75%
c W 39.72 377 71 11 30 3513 109520 40476 306576 2916162 1% 6 503468 75%
c - 39.93 379 69 11 31 3515 113094 40163 306581 2916162 1% 6 503468 75%
c - 40.25 379 65 11 32 3519 118661 41091 306585 2916162 1% 6 503468 75%
c - 40.57 379 61 11 33 3521 124317 42390 306594 2916162 1% 6 503468 75%
c - 40.86 379 57 11 34 3525 130061 43977 306599 2916162 1% 6 503468 75%
c i 40.91 379 56 11 34 3526 131407 45289 306605 2916162 1% 6 503465 75%
c i 40.93 379 56 11 34 3526 132084 45951 306608 2916162 1% 6 503463 75%
c i 40.97 379 55 11 34 3526 133032 46876 306611 2916162 1% 6 503438 75%
c i 40.97 379 55 11 34 3526 133035 46876 306613 2916162 1% 6 503435 75%
c i 40.97 379 55 11 34 3526 133045 46883 306615 2916162 1% 6 503432 75%
c i 40.97 379 55 11 34 3526 133051 46883 306617 2916162 1% 6 503430 75%
c i 40.97 379 55 11 34 3526 133052 46883 306617 2916162 1% 6 503423 75%
c i 40.97 379 55 11 34 3526 133053 46883 306617 2916162 1% 6 503421 75%
c ] 40.97 379 55 11 34 3526 133064 46891 306618 2916162 1% 6 503411 75%
c
c  seconds     switched    conflicts           irredundant  variables
c          MB    reductions       redundant            trail      remaining
c            level    restarts            binary          glue
c
c 0 40.97 379 401 11 34 3526 133064 46891 306618 2916162 2% 5 503411 75%
c
c ---- [ result ] ------------------------------------------------------------
c
s UNSATISFIABLE
c
c ---- [ profiling ] ---------------------------------------------------------
c
c          26.72   65.22 %  simplify
c          20.38   49.74 %  probe
c          13.26   32.37 %  search
c          10.94   26.71 %  vivify
c           7.50   18.31 %  stable
c           5.76   14.06 %  focused
c           5.04   12.30 %  substitute
c           4.66   11.37 %  eliminate
c           3.11    7.60 %  sweep
c           2.82    6.89 %  reduce
c           1.68    4.11 %  walking
c           0.99    2.41 %  parse
c           0.83    2.03 %  transitive
c           0.69    1.68 %  subsume
c           0.45    1.10 %  backbone
c           0.19    0.47 %  warmup
c =============================================
c          40.97  100.00 %  total
c
c ---- [ statistics ] --------------------------------------------------------
c
c chronological:                          815                1 %  conflicts
c conflicts:                           133064             3247.78 per second
c decisions:                          2003852               15.06 per conflict
c eliminated:                          149325               22 %  variables
c jumped_reasons:                     5309270                7 %  propagations
c propagations:                      72099158          1759772    per second
c queue_decisions:                     180278                9 %  decision
c random_decisions:                   1635945               82 %  decision
c random_sequences:                        32             4158    interval
c reductions:                              34             3914    interval
c rephased:                                11            12097    interval
c restarts:                              3526               37.74 interval
c score_decisions:                     187629                9 %  decision
c strengthened:                           801                0 %  checks
c substituted:                          17019                3 %  variables
c subsumed:                             63320                1 %  checks
c switched:                                11            12097    interval
c vivified:                             30518               28 %  checks
c vivify_checks:                       108333            15476    per vivify
c vivify_units:                             2                0 %  variables
c walk_improved:                            4              100 %  walks
c walks:                                    4            33266    interval
c
c ---- [ resources ] ---------------------------------------------------------
c
c maximum-resident-set-size:        397811712 bytes        379 MB
c process-time:                            41s              40.97 seconds
c
c ---- [ shutting down ] -----------------------------------------------------
c
c exit 20
